1566519
0 18 22804
18 48 8895
48 22 4353
22 5 16175
5 10 47990
10 65 13370
65 25 57991
25 54 61621
54 33 20835
33 45 36286
45 42 69394
42 6 52950
6 37 28523
37 66 15200
66 63 14572
63 40 28668
40 29 5056
29 24 1249
24 28 9940
28 59 6419
59 4 7979
4 39 3130
39 55 3489
55 31 1427
31 41 5759
41 11 4831
11 23 13443
23 60 5437
60 2 12947
2 20 17216
20 62 32196
62 15 14689
15 58 10880
58 35 8563
35 49 24707
49 27 10810
27 30 65445
30 21 39447
21 51 46274
51 32 101509
32 56 88918
56 17 27906
17 9 28652
9 13 62052
13 43 62420
43 52 84806
52 36 6554
36 61 30446
61 38 8740
38 50 11004
50 34 8926
34 67 19070
67 7 34471
7 14 6874
14 57 6904
57 8 1777
8 16 5356
16 26 1445
26 44 8214
44 64 16726
64 1 19463
1 47 7938
47 3 7248
3 19 4440
19 46 12843
46 12 9114
12 53 13536
53 0 18207
